
 102   30
  10   10   10   10   10   10   10   10   10   10   10   10   10   10   10   10   10   10   10   10   10   10   10   10   10   10   10   10   10   10

   0   0   0   0   0   0   0   0   0   0   0   0   0   0   0   0   0   0   0   0   0   0   0   0   0   0   0   0   0   0   0  28 2 3 4 5 6 7 8 9 10 11 12 13 14 15 16 17 19 20 21 23 24 25 28 31 39 40 44 48 
   7   0   0   0   0   0   0   0   0   0   0   0   0   0   0   0   0   0   0   0   0   0   1   0   0   0   0   3   0   0   0  18 101 100 71 67 62 57 56 55 51 49 46 45 41 38 33 27 26 18 
   1   0   1   0   0   0   0   0   0   0   0   0   0   1   0   0   1   0   0   0   1   0   0   1   1   1   1   0   0   0   3  15 100 73 62 53 51 50 49 46 43 41 38 36 33 26 18 
   1   1   0   0   0   0   0   1   1   0   0   0   0   6   0   0   0   0   0   0   0   0   0   0   0   0   8   0   0   0   4  13 101 100 67 56 55 52 47 46 43 30 27 26 22 
   8   0   0   2   0   0   0   0   0   0   5   0   0   0   0   0   0   0   0   0   0   0   0   0   0   0   0   0   0   0   0  23 101 100 99 98 97 95 94 90 88 73 71 65 62 61 55 52 51 50 49 46 45 43 42 
   9   0   0   0   0   0   0   0   0   0   0   0   1   7   0   0   0   0   0   0   0   0   7   0   0   0   7   0   0   0   0  19 101 99 98 95 90 73 71 66 60 59 56 53 50 49 46 43 42 41 35 
   5   0   0   0   0   0   0   0   0   0   6   0   7   0   0   0   6   0   0   1   0   0   0   0   0  10   0   0   0   0   0   9 101 98 49 47 46 42 37 29 27 
   8   0   0   8   0   0   0   9   5   0   0   0   0   0   0   0   0   0   0   0   0   0   0   0   0   0   0   0   0   0   0  16 99 97 90 72 71 67 65 59 56 55 51 49 42 38 34 32 
   5   0   0   0   3   0   0   0   0   0   0   0   0   0   0   0   0   4   0  10   0   0   0   0   0   0   0   0   0   0   0  18 99 97 96 95 94 92 90 73 65 64 62 61 60 59 58 56 43 38 
   8   0   0   0   5   0   0   0   0   0   0   0   7   0   0   4   0   0   0   0   0   0   0   0   0   0   0   0   0   0   0  13 101 100 94 93 92 91 64 62 61 58 55 53 29 
   1   0  10   6   5   0   0   0   0   0   0   0   0   0   0   0   0   4   0   0   0   0   0   0   0   0   0   0   0   0   0  12 100 98 95 93 92 88 64 62 58 57 51 27 
   6   0   0   0   0   0   0   0   0   0   0   1   0   0   8   0   0   0   0   0   0   0   0   0   0   8   0   0   0   0   0  15 100 96 95 94 91 90 89 87 71 67 52 51 50 49 42 
   1   0   0   0   0   0   0   5   0   1   4   3   0   0   0   0   8   5   0   0   0   0   0   0   0   0   0   0   1   0   5  15 99 95 92 90 88 87 72 71 66 62 58 57 54 53 46 
   5   0   0   0  10   0   0   0   0   0   0   0   0   0   0   0   0   0   0   0   0   0   0   0   0   0   0   0   3   0   0  17 100 98 97 94 90 71 69 67 66 65 64 60 55 54 52 49 45 
   5   0   5   0   0   0   0   0   0   0   0   0   0   0   0   7   0   0   0   0   0   0   0   0   5   0   0   0   0   0   0  19 98 95 94 93 91 90 89 87 83 72 71 67 66 62 59 58 56 51 50 
   9   0   0   0   0   0   0   0   0   0   0   0   5   0   0   0   0   0   0   0   0   0   3   0   0   0   6   0   0   0   0  15 99 98 96 95 94 90 88 87 72 68 57 55 51 50 42 
   8   0   7   0   0   0   0   0   0   0   0   5   0   0   0   0   0   0   0   0   0   0   5   0   0   0   0   0   0   0   0  11 98 97 94 92 90 71 67 65 50 46 41 
   9   0   0   0   0   0   0   0   0   0   0   0   0   9   0   0   0   0   0   0   0   0   0   0   0   0   0   0   0   0   0  14 99 97 96 95 94 90 86 83 63 61 60 59 54 42 
   9   0   0   0   0   0   0   0   3   0   0   0   0   0   0   0   0   0   0   0   8   0   0   0   0   0   0   0   0   0   0  16 101 99 98 93 92 90 88 85 71 70 66 64 61 59 58 49 
   1   0   0   0   0   2   0   0   0   0   0   0   0   0   0   0   0   0   0   0   6   0   0  10   5   0   0   0   0   0   0  12 99 96 94 90 89 88 83 79 72 62 61 42 
   1   0   0   0   0   0   0   0   7   0   0   0   0   0   0   0   0   0   0   0   0   1   0   0   0   0   0   0   0   0   0  11 98 97 95 94 91 89 86 71 54 49 42 
   8   0   0   0   0   0   0   0   0   0   0   0   0   4   0   0   0   0   0   0   0   0   5   0   5   0   0   0   0   0   0  12 99 92 90 89 87 71 70 66 64 63 54 41 
   5   0   0   6   9   0   0   0   0   0   0   0   0   0   0   0   0   0   0   0   0   0   0   0   3   9   0   0   0   0   0  11 99 97 94 92 90 87 68 65 64 58 45 
   5   0   0   0   0   0   0   0   0   0   0   0   0   0   0   0   0   6   0   0   0   0   0   0   0   0   0   0   0   1   0  11 100 98 95 92 89 88 87 85 58 51 43 
   2   6   0   0   5   0   0   0   0   0  10   0   0   0   2   4   0   0   0   0   0   0   0   0   0   0   0   0   0   0   0  20 96 95 93 92 91 90 89 88 86 85 83 81 80 79 77 71 70 68 64 58 
   8   0   0   4   0   7   0   0   0   0   0   0   7   0   0   0   0   0   0   6   0   0   0   0   0   0   6   0   0   0   0  19 98 96 95 94 93 92 91 90 88 87 86 83 81 80 79 68 66 64 58 
   5   0   0   7   0   0   0   0   0   0   0   0   0   0   9   0   0   0   0   0   0   0   0   0   9   6   0   6   0   4   0  15 97 96 91 90 89 87 86 83 69 68 65 63 60 59 50 
   8   0   0   3   0   0   0   0   0   0   0   0   0   0   0   0   0   0   0   0   0   0   0   0   0   0   0   0   0   0   0  16 101 100 94 92 91 88 86 84 83 82 71 69 68 66 63 53 
   3   0   0   0   0   0   0   0   0   6   0   0   0   0   0   4   0   0   1   0   0   6   0   3   0   0   0   0   0   0  10  12 99 96 90 89 88 87 83 72 71 69 54 50 
   2   0   0   5   2   5   0   0   0   0   0   0   0   0   0   0   0   0   5   0   5   0   0   0   0   0   0   0   0   0   5   9 95 94 90 89 87 83 79 68 42 
   1   0   0   0   5   0   0   0   0   0   0   0   0   0   4  10   0   0   0   0   0   0   0   0   0   0   0   0   0   0   8  13 98 95 91 90 88 86 84 83 71 70 65 58 54 
   3   0   0   0   0   0   3   0   0   0   5  10   0   0   0   0   0   0   0   0   0   0   0   0   0   0   3   0   0   0   0  10 98 96 95 88 84 83 69 63 54 50 
   3   0   0   7   0   0   0   0   0   0   0   0   0   0   0   0   0   7   0   0   0   9   0   0   0   0   7   0   0   0   0  17 94 93 92 90 87 86 85 83 82 80 79 78 77 75 70 68 64 
   7   0   0   0   0   0   0   0   9   0   0   0   0   0   0   0   0   0   4   9   0   0   0   0   0   0   0   0   0   0   0  13 101 94 92 86 85 84 81 80 77 70 68 63 58 
   6   0   6   0   0   0   0   0   9   0   5   0   0   0   0   0   0   2   5   5   0   0   0   0   0   0   0   0   0   0   0  10 100 94 91 89 87 85 83 77 58 54 
   7   5   0   0   0   0   0   7   0   0   0   0   0   0   0   0   0   0   0   8   0   0   7   0   0   0   6   0   0   0   0  13 97 91 88 87 85 84 83 80 79 72 71 69 66 
   2   0   0   0   0   7   0   0   0   0   0   0   9   0   7   0   0   0   0   0   0   0   0   0   2   0   0   0   0   0   0  14 100 99 97 95 94 90 87 85 83 81 75 69 68 64 
   1   0   0   0   0   0   0   9   0   0   0  10   0   0   0   0   0  10   0   0   0   0   0   0   0   0   0   0   0   0   6  11 93 91 89 87 83 80 76 75 69 63 54 
   2   0   0   0   5  10   7   0   0   0   3   0   0   0   0   4   0   0   5   4   0   0   0   0   0   0   0   0   0   0   0  11 90 89 87 85 83 79 78 74 70 66 56 
   7   0   0   0   0   0   0   0   0   0   7   0   0   0   1   0   0   0   0   0   0   0   0   0   0   0   0   0   0   0   0  15 97 95 94 89 88 87 86 84 83 82 79 78 76 75 68 
  10   0   0   0   0   0   0   0   0   0   0   0   0   0   0   0   0   0   0   0   9   0   0   8   0   0   0   0   0   0   8  10 93 86 85 83 81 80 79 77 68 58 
  10   0   0   6   0   0   0   0   0   9   0   0   0   6   0   0   0   0   0   0   0   0   0   0   4   0   0   0   0   0   0   9 93 92 85 81 80 77 70 64 58 
   6   0   0   0   0   0   5   0   6   7   0   0   0   0   0   0   9   7   0   0   0   4   6   0   0   0   0   0   0   6   0   9 91 86 83 80 77 75 70 69 54 
   7   0   0   0   0   0   0   0   0   0   5   0   0   0   0   0   0   5   7   6   0   9   0   4   0   0   0   0   0   0   0  14 98 92 88 87 86 84 82 80 79 78 77 75 74 70 
   6   0   0   5   0   0   0   0   0   0   0   0   0   0   0   0   0   0   0   0   0   0   0   8   0   0   0   0   0   0   0  13 93 91 89 86 84 83 82 81 80 78 77 76 63 
   9   8   0   0   0   0   5   0   0   0   0   0   0   0   0   5   0   0   0   0   0   0   0   8   0   0   0   2   7   0   0  10 96 91 82 81 77 75 70 69 64 63 
   5   0   0   0   0   0   0   0   0   0   0   0   0   0   0   0   0   0   5   0   0   7   0   0   0   0   0   7   8   0   0  10 96 95 91 82 81 77 76 71 63 62 
   9   0   0   0   0   0   0   0   0   0   0   0   0   0   0   0   4   0   0   0   0   0   0   0   0   0   0   3   0   0   0  10 95 89 86 85 83 81 76 71 69 64 
   4   0   0   0   0   0   0   0   0   0   0   0   7   5   0   0   0   6   0   0   6   0   0   0   0   0   0   6   0   0   5   7 83 80 78 76 75 68 63 
   4   9   0   0   0   0   0   0   0   0   0   0  10   8   0   0   0   0   0   0   0   0   0   0   0   0   0   0   6   0   0   7 85 82 81 80 77 75 70 
   8   0   0   0   0   0   6   0   0   0   0   0   0   0   0   8   0   0   0   0   0   0   0   0   0   0   0   0   0   8   0   6 84 81 80 78 75 63 
   3   0   0   0   4   0   0   6   0   0   0   0   0   0   0   0   0   0   0   0   0   0   0   0   0   0   0   0   0   0   6   6 84 83 81 80 77 72 
   7   0   0   0   0   8   0   0   0   0   0   0   0   0   5   0   0   0   8   0   0   0   0   0   0   5   0   0   0   0   0   5 97 80 75 74 65 
   5   0   4   0   0   0   0   0   0   0   0   8   0   0   7   7   0   0   0   0   0   0   0   0   0   0   0   0   0   0   0   5 82 81 79 78 68 
   5   0   0   0   0   0   0   0   0   9   0   0   0   0   5   0   9   0   0   0   0   0   0   0   6   0   0   0   0   0   0   5 85 84 83 75 74 
   9   0   0   0   0   0   0   0   0   0   0   0   0   0   0   0   0   0   0   0   0   0   0   7   0   0   0   7   0   0   0   5 88 81 80 77 75 
   7   0   0   0   0   3   0   8   0   0   0   0   0   0   0   0   0   0   0   5   0   0   0   0   0   0   0   0   0   8   0   5 89 83 82 80 76 
   1   0   0   0   0   0   0   0   0   0   0   0   0   0   7   6   4   0   9   0   0   0   0   0   0   0   0   0   8   0   0   4 82 76 75 69 
   6   0   0   5   0   0   8   0  10   0   2   0   0   0   6   0   0   0   0   0   0   0   0   0   0   0   0   0   0   0   0   4 84 81 77 76 
  10   7   0   0   0   0   0   5   0   0   0   0   0   0   0   0   0   0   0   0   0   0   0   0   7   0   0   0   0   4   0   4 77 76 75 74 
   1   0   0   0  10   0   0   0   0   0   6   5   0   0   0   0   0   0   0   0   0   0   0   0   6   0   0   0   7   0   0   4 87 82 77 76 
   2   0   0   0   0   0   8   0   0   0   0   0   0   0   0   0   0   0   0   0   0   0   0   0   0   0   0   0   0   0   0   2 86 68 
   7   0   8   0   0   0   0   0   0   0   0   0   0   0   6   0   5   0   0   0   0   0   0   0   0   9   0   0   6   0   8   2 79 74 
   9   0   6   0   0   0   0   0   0   0   0   0   0   0   0   0   5   0   0   0   0   0   0   0   8   0   0   0   0   8   0   2 84 74 
   8   7   0   0   0   0   0   0   0   0   0   8   0   5   0   0   0   0   0   0   0   0   0   0   0   0   0   0   0   0   0   2 85 77 
   2   0   0   0   0   0   0   0   0   0   0   0   0   0   0   0   0   0   0   0   0   8   0   0   0   0   0   0   0   5   0   2 77 76 
   6   0   0  10   0   0   0   0   8   0   0   9   0   0   0   0   0   0   0   0   0   0   0   0   7   0   0   0   0   8   0   2 88 79 
   8   0   6   0   0   0   0   5   0   0   0   0   0   0   0   0   0   0   0   0   0   0   0   0   0   0   0   0   0   0   0   1 74 
  10   0   0   0   0  10   0   0   0   0   0   0   0   0   0   0   8   0   0   0   0   0   6   0   0   3   0   0   0   0   0   1 78 
   7   4   0   0   0   0   0   0   0   0   0   0   0   0   0   3   0   0   0   0   0   3   0   0   0   0   0   5   0   0   0   1 76 
   9   0   0   0   0   0   0   0   0   0   5   0   4   3   0   0   5   0   0   4   0   0   0   0   0   0   0   0   0   0   0   1 75 
   6   0   0   0   0   0   2   0   0   0   0   0   0   0   0   0   0   0   0   0   0   0   0   0   9   0   0   0   0   0   0   1 86 
   5   0   0   0   0   0   0   0   0   9   0   0   0   0   0   0   0  10   0   0   6   0   0   0   0   0   0   0   0   0   0   1 80 
   3   7   0   0   0   0   0   0   0   0   0   6   0   0   0   0   8   0   0   0   0   0   0   0   8   0   0   0   0   0   2   1 102
   5   0   7   0   9   0   0   0   0   0   0   0   0   0   0   0   0   0   0   7   0   0   0   0   0   0   0   0   0   7   0   1 102
   8   0   0   0   0   0   0   0   0   0   0   0   0   6   0   0   0   0   0   0   4   0   0   0   0   0   0   0   0   0   4   1 102
   9   0   0   0   0   0   0   0   5   0   0   0   0   0   0   7   0   0   0   0   0   0   0   6   0   0   0   0   0   0   0   1 102
   2   0   0   0   4   0   0   0   0   0   8   0   0   0   0   0   0   0   7   0   0   8   8   0   0   0   0   0   0   0   0   1 102
   2   0   0   0   0   0   0   0   5   4   0   0   0   0   0   0   0   0   0   0   0   0   8   0   0   0   0   0   0   0   0   1 102
   4   0   6   0   0   0   4   0   0   0   0   0   8   0  10   0   0  10   0   7   0   9   0   0   5   0   0   0   0   0   0   1 102
   5   0   7   0   0   0   0   0   0   0   0   0   0   9   0   0   0   0   9   0   0   0   0   0   0   0   0   8   0   0  10   1 102
   7   0   0   0   0   0   0   0   0   0   0   0   0   0   0   0   0   0   5   0   0   0   0   0   8   6   0   0   0   0   0   1 102
   2   0   0   0   0   0   0   0   0   0   0   0   0   7   0   0   0   0   0   0   0   0   0   0   0   0   0   0   0   0   0   1 102
   6   0   0   0   0   2   0   0   0   0   0   0   0   0   0   0   0   0   7   0   0   0   0   0   7   0   0   0   0   7   0   1 102
   5   0   0   0  10   0   0   0   0   0   0   6   0   8   0  10   8   0   0   0   0   0   0   0   0   0   0   0   0   0   0   1 102
   7   0   0   0   0   0   0   0   0   0   0   0   0   0   0   0   0   0   0   0   0   0   8   0   0   0   0   0   0   0   0   1 102
   6   0   0   0   3   4   0   0   0   0  10   0   0   0   0   7   0   0   0   0   0   0   0   0   0   0   0   0   0   0   0   1 102
   5   0   0   0   0   6   8   0   0   6   0   3   0   0   0   0   0   0   0   0   7   0   0   0   0   0   0   0   0   0   0   1 102
   8   0   0  10   0   0   0   0   0   0   0   0   0   0   0   0   0   5   7   0   0   0   0   0   0   0   0   0   0   0   0   1 102
   2   0   0   0   0   0   0   0   0   0   0   3   0   0   0   0   0   0   0   0   7   0   0   0  10   0   0   0   0   0   0   1 102
   1   0   0   0   0   0   0   0   0   0   0   0   0   0   7   0   0   3   0   4   7   3   0   0   0   0   0   9   0   0   0   1 102
   8   0   5   0   0   6   0   5   0   0   4   0   0   6   0   0   0   0   6   0   0   5   0   0   3   0  10   0   0   0   0   1 102
  10   0   6   0   0   0   0   0   0   0   0   0   0   0   0   0   0   0   0   8   0   0   0   0   0   0   0  10   0   0   0   1 102
   7   8   0   0   0   0   0   0   0   5   0   0   0   0   0   0   4   0   0   0   0   0   0   0   0   0   6   0   0   0   0   1 102
   2   0   0   0   0   0   0   0   0   4   0   0   0   0   0   0   0   0   0   7   6   0   0   0   0   0   0   0   0   0   0   1 102
   5   4   0   0   0   0  10   0   0   0   0   0   1   0   0   0   0   0   0   0   0   0   0   0   0   3   0   0   0   0   0   1 102
   8   0   0   0   0   0   0   0   0   0  10   0   0   0   0   4   0   0   0   0   0   0   8   0   0   0   0   0   0   0   0   1 102
   8   0   0   0   0   0   0   0   0   0   0   0   0   0   0   0   0   0   0   0   0   0   0   5   0   0   0   0   0   6   0   1 102
   9   0   6   0   0   0   0   0   0   0   0   0   0   0   0   0   0   0   0   0   0   0   0   0   0   0   0   0   8   0   0   1 102
   7   0   0   0   7   0   0   0   4   0   0   0   0   0   0   0   0   0   0   5   0   0   0   0   8   0   0   0   0   0   0   1 102
   5   0   0   0   0   8   0   0   0   0   7   7   0   0   0   0   0   0   0   0   0   0   0   0   0   0   0   0   0   0   0   1 102
   0   0   0   0   0   0   0   0   0   0   0   0   0   0   0   0   0   0   0   0   0   0   0   0   0   0   0   0   0   0   0   0 
